\ Model knapsack_80_10_4
\ LP format - for model browsing. Use MPS format to capture full model detail.
\ Signature: 0x7875ab3d6a132094
Minimize
  - 869 y[0] - 126 y[1] - 510 y[2] - 698 y[3] - 656 y[4] - 1056 y[5]
   - 213 y[6] - 200 y[7] - 770 y[8] - 785 y[9] - 779 y[10] - 837 y[11]
   - 307 y[12] - 321 y[13] - 1029 y[14] - 543 y[15] - 259 y[16] - 878 y[17]
   - 708 y[18] - 158 y[19] - 497 y[20] - 1031 y[21] - 109 y[22] - 375 y[23]
   - 298 y[24] - 731 y[25] - 758 y[26] - 902 y[27] - 746 y[28] - 279 y[29]
   - 590 y[30] - 640 y[31] - 347 y[32] - 566 y[33] - 562 y[34] - 862 y[35]
   - 519 y[36] - 810 y[37] - 904 y[38] - 685 y[39] - 1035 y[40] - 641 y[41]
   - 1017 y[42] - 667 y[43] - 1098 y[44] - 1020 y[45] - 808 y[46]
   - 1100 y[47] - 514 y[48] - 561 y[49] - 610 y[50] - 274 y[51] - 672 y[52]
   - 752 y[53] - 305 y[54] - 1011 y[55] - 123 y[56] - 506 y[57] - 337 y[58]
   - 852 y[59] - 991 y[60] - 469 y[61] - 149 y[62] - 484 y[63] - 497 y[64]
   - 876 y[65] - 903 y[66] - 875 y[67] - 218 y[68] - 443 y[69] - 219 y[70]
   - 433 y[71] - 546 y[72] - 273 y[73] - 654 y[74] - 595 y[75] - 906 y[76]
   - 878 y[77] - 496 y[78] - 175 y[79]
Subject To
 primal_upper: 769 y[0] + 26 y[1] + 410 y[2] + 598 y[3] + 556 y[4]
   + 956 y[5] + 113 y[6] + 100 y[7] + 670 y[8] + 685 y[9] + 679 y[10]
   + 737 y[11] + 207 y[12] + 221 y[13] + 929 y[14] + 443 y[15] + 159 y[16]
   + 778 y[17] + 608 y[18] + 58 y[19] + 397 y[20] + 931 y[21] + 9 y[22]
   + 275 y[23] + 198 y[24] + 631 y[25] + 658 y[26] + 802 y[27] + 646 y[28]
   + 179 y[29] + 490 y[30] + 540 y[31] + 247 y[32] + 466 y[33] + 462 y[34]
   + 762 y[35] + 419 y[36] + 710 y[37] + 804 y[38] + 585 y[39] + 935 y[40]
   + 541 y[41] + 917 y[42] + 567 y[43] + 998 y[44] + 920 y[45] + 708 y[46]
   + 1000 y[47] + 414 y[48] + 461 y[49] + 510 y[50] + 174 y[51] + 572 y[52]
   + 652 y[53] + 205 y[54] + 911 y[55] + 23 y[56] + 406 y[57] + 237 y[58]
   + 752 y[59] + 891 y[60] + 369 y[61] + 49 y[62] + 384 y[63] + 397 y[64]
   + 776 y[65] + 803 y[66] + 775 y[67] + 118 y[68] + 343 y[69] + 119 y[70]
   + 333 y[71] + 446 y[72] + 173 y[73] + 554 y[74] + 495 y[75] + 806 y[76]
   + 778 y[77] + 396 y[78] + 75 y[79] + 77 z[0] + 3 z[1] + 41 z[2]
   + 60 z[3] + 56 z[4] + 96 z[5] + 11 z[6] + 10 z[7] + 67 z[8] + 68 z[9]
   + 68 z[10] + 74 z[11] + 21 z[12] + 22 z[13] + 93 z[14] + 44 z[15]
   + 16 z[16] + 78 z[17] + 61 z[18] + 6 z[19] + 40 z[20] + 93 z[21] + z[22]
   + 28 z[23] + 20 z[24] + 63 z[25] + 66 z[26] + 80 z[27] + 65 z[28]
   + 18 z[29] + 49 z[30] + 54 z[31] + 25 z[32] + 47 z[33] + 46 z[34]
   + 76 z[35] + 42 z[36] + 71 z[37] + 80 z[38] + 58 z[39] + 94 z[40]
   + 54 z[41] + 92 z[42] + 57 z[43] + 100 z[44] + 92 z[45] + 71 z[46]
   + 100 z[47] + 41 z[48] + 46 z[49] + 51 z[50] + 17 z[51] + 57 z[52]
   + 65 z[53] + 20 z[54] + 91 z[55] + 2 z[56] + 41 z[57] + 24 z[58]
   + 75 z[59] + 89 z[60] + 37 z[61] + 5 z[62] + 38 z[63] + 40 z[64]
   + 78 z[65] + 80 z[66] + 78 z[67] + 12 z[68] + 34 z[69] + 12 z[70]
   + 33 z[71] + 45 z[72] + 17 z[73] + 55 z[74] + 50 z[75] + 81 z[76]
   + 78 z[77] + 40 z[78] + 8 z[79] <= 8179
 primal_lower0: - y[0] - y[1] - y[2] - y[3] - 9 y[4] - 4 y[5] - 7 y[6]
   - 5 y[8] - 6 y[9] - 9 y[10] - 10 y[11] - 4 y[12] - 11 y[13] - y[15]
   - 5 y[16] - 6 y[17] - 6 y[18] - 9 y[19] - 8 y[20] - 4 y[21] - 9 y[22]
   - 11 y[23] - 8 y[24] - 9 y[25] - 7 y[26] - y[27] - 10 y[28] - 11 y[29]
   - 7 y[30] - 9 y[31] - 6 y[32] - 2 y[33] - 11 y[34] - 4 y[35] - y[36]
   - 9 y[38] - 2 y[39] - 3 y[40] - 2 y[41] - 3 y[42] - 9 y[43] - y[45]
   - 5 y[46] - 6 y[47] - y[48] - 6 y[49] - 8 y[50] - 3 y[51] - 2 y[52]
   - 7 y[53] - 7 y[54] - 6 y[55] - 5 y[56] - 5 y[57] - y[58] - y[59]
   - 7 y[60] - 5 y[61] - 7 y[63] - 11 y[64] - 2 y[65] - 2 y[66] - 5 y[67]
   - 11 y[68] - 6 y[69] - 8 y[70] - 2 y[71] - 11 y[72] - 10 y[73] - 4 y[74]
   - 8 y[75] - y[76] - 3 y[77] - 6 y[78] - 7 y[79] + 706 u[0] + 487 u[1]
   + 371 u[2] + 387 u[3] + 733 u[4] + 673 u[5] + 442 u[6] + 345 u[7]
   + 351 u[8] + 562 u[9] + 936 u[10] + 606 u[11] + 312 u[12] + 378 u[13]
   + 602 u[14] + 928 u[15] + 544 u[16] + 623 u[17] + 881 u[18] + 407 u[19]
   + 454 u[20] + 64 u[21] + 930 u[22] + 264 u[23] + 983 u[24] + 852 u[25]
   + 67 u[26] + 175 u[27] + 855 u[28] + 24 u[29] + 955 u[30] + 785 u[31]
   + 968 u[32] + 791 u[33] + 431 u[34] + 527 u[35] + 564 u[36] + 667 u[37]
   + 277 u[38] + 262 u[39] + 864 u[40] + 762 u[41] + 902 u[42] + 28 u[43]
   + 823 u[44] + 949 u[45] + 565 u[46] + 621 u[47] + 767 u[48] + 2 u[49]
   + 855 u[50] + 219 u[51] + 325 u[52] + 897 u[53] + 782 u[54] + 660 u[55]
   + 664 u[56] + 963 u[57] + 526 u[58] + 69 u[59] + 76 u[60] + 446 u[61]
   + 618 u[62] + 221 u[63] + 494 u[64] + 557 u[65] + 220 u[66] + 932 u[67]
   + 775 u[68] + 364 u[69] + 864 u[70] + 186 u[71] + 727 u[72] + 82 u[73]
   + 739 u[74] + 156 u[75] + 503 u[76] + 671 u[77] + 37 u[78] + 272 u[79]
   <= 983
 primal_lower1: - 38 y[0] - 36 y[1] - 34 y[2] - 47 y[3] - 96 y[4]
   - 104 y[5] - 85 y[6] - 47 y[7] - 57 y[8] - 28 y[9] - 64 y[10] - 3 y[11]
   - 72 y[12] - 16 y[13] - 5 y[14] - 24 y[15] - 54 y[16] - 18 y[17]
   - 89 y[18] - 37 y[19] - 31 y[20] - 45 y[21] - 14 y[22] - 42 y[23]
   - 64 y[24] - 77 y[25] - 104 y[26] - 23 y[27] - 72 y[28] - 48 y[29]
   - 36 y[30] - 97 y[31] - 89 y[32] - 4 y[33] - 54 y[34] - 50 y[35]
   - 26 y[36] - 88 y[37] - 6 y[38] - 66 y[39] - 50 y[40] - 2 y[41]
   - 11 y[42] - 5 y[43] - 23 y[44] - 97 y[45] - 67 y[46] - 76 y[47]
   - 6 y[48] - 34 y[49] - 100 y[50] - 44 y[51] - 2 y[52] - 59 y[53]
   - 19 y[54] - 9 y[55] - 2 y[56] - 41 y[57] - y[58] - 57 y[59] - 74 y[60]
   - 48 y[61] - 93 y[62] - 32 y[63] - 30 y[64] - 74 y[65] - 51 y[66]
   - 64 y[67] - 55 y[68] - 4 y[69] - 54 y[70] - 77 y[71] - 51 y[72]
   - 103 y[73] - 102 y[74] - 81 y[75] - 82 y[76] - 3 y[77] - 6 y[78]
   - 74 y[79] + 219 u[0] + 245 u[1] + 879 u[2] + 622 u[3] + 349 u[4]
   + 295 u[5] + 606 u[6] + 939 u[7] + 63 u[8] + 857 u[9] + 333 u[10]
   + 672 u[11] + 56 u[12] + 313 u[13] + 519 u[14] + 155 u[15] + 632 u[16]
   + 710 u[17] + 925 u[18] + 386 u[19] + 319 u[20] + 870 u[21] + 174 u[22]
   + 578 u[23] + 943 u[24] + 970 u[25] + 335 u[26] + 193 u[27] + 288 u[28]
   + 766 u[29] + 208 u[30] + 411 u[31] + 176 u[32] + 189 u[33] + 683 u[34]
   + 641 u[35] + 276 u[36] + 898 u[37] + 577 u[38] + 369 u[39] + 320 u[40]
   + 937 u[41] + 947 u[42] + 838 u[43] + 327 u[44] + 379 u[45] + 322 u[46]
   + 471 u[47] + 664 u[48] + 472 u[49] + 915 u[50] + 766 u[51] + 861 u[52]
   + 983 u[53] + 755 u[54] + 719 u[55] + 17 u[56] + 353 u[57] + 346 u[58]
   + 312 u[59] + 85 u[60] + 884 u[61] + 855 u[62] + 743 u[63] + 391 u[64]
   + 443 u[65] + 704 u[66] + 550 u[67] + 935 u[68] + 803 u[69] + 964 u[70]
   + 820 u[71] + 31 u[72] + 648 u[73] + 112 u[74] + 622 u[75] + 175 u[76]
   + 422 u[77] + 594 u[78] + 283 u[79] <= 8481
 primal_lower2: - 50 y[0] - 14 y[1] - 7 y[2] - 86 y[3] - 81 y[4] - 82 y[5]
   - 88 y[6] - 2 y[7] - 77 y[8] - 72 y[9] - 62 y[10] - 69 y[11] - 72 y[12]
   - 81 y[13] - 31 y[14] - 16 y[15] - 3 y[16] - 94 y[17] - 52 y[18]
   - 10 y[19] - 61 y[20] - 18 y[21] - 4 y[22] - 5 y[23] - 16 y[24]
   - 99 y[25] - 79 y[26] - 53 y[27] - 32 y[28] - 4 y[29] - 33 y[30]
   - 73 y[31] - 43 y[32] - 4 y[33] - 35 y[34] - 37 y[35] - 52 y[36]
   - 38 y[37] - 35 y[38] - 45 y[39] - 87 y[40] - 77 y[41] - 44 y[42]
   - 54 y[43] - 87 y[44] - 73 y[45] - 19 y[46] - 62 y[47] - 72 y[48]
   - 96 y[49] - 79 y[50] - 51 y[51] - 57 y[52] - 6 y[53] - 75 y[54]
   - 84 y[55] - 68 y[56] - 27 y[57] - 35 y[58] - 40 y[59] - 41 y[60]
   - 53 y[61] - 78 y[62] - 42 y[63] - 18 y[64] - 81 y[65] - 82 y[66]
   - 82 y[67] - 32 y[68] - 23 y[69] - 30 y[70] - 78 y[71] - 92 y[72]
   - 31 y[73] - 85 y[74] - 3 y[75] - 100 y[76] - 48 y[77] - 33 y[78]
   - 87 y[79] + 507 u[0] + 468 u[1] + 780 u[2] + 448 u[3] + 422 u[4]
   + 702 u[5] + 411 u[6] + 550 u[7] + 160 u[8] + 599 u[9] + 121 u[10]
   + 795 u[11] + 137 u[12] + 455 u[13] + 819 u[14] + 413 u[15] + 961 u[16]
   + 804 u[17] + 66 u[18] + 460 u[19] + 231 u[20] + 925 u[21] + 659 u[22]
   + 701 u[23] + 16 u[24] + 977 u[25] + 396 u[26] + 340 u[27] + 752 u[28]
   + 997 u[29] + 612 u[30] + 702 u[31] + 625 u[32] + 476 u[33] + 704 u[34]
   + 100 u[35] + 925 u[36] + 720 u[37] + 742 u[38] + 443 u[39] + 305 u[40]
   + 303 u[41] + 831 u[42] + 313 u[43] + 224 u[44] + 530 u[45] + 86 u[46]
   + 322 u[47] + 640 u[48] + 311 u[49] + 600 u[50] + 248 u[51] + 606 u[52]
   + 582 u[53] + 711 u[54] + 17 u[55] + u[56] + 640 u[57] + 47 u[58]
   + 970 u[59] + 205 u[60] + 611 u[61] + 59 u[62] + 594 u[63] + 647 u[64]
   + 210 u[65] + 685 u[66] + 921 u[67] + 848 u[68] + 73 u[69] + 409 u[70]
   + 871 u[71] + 992 u[72] + 375 u[73] + 388 u[74] + 889 u[75] + 680 u[76]
   + 156 u[77] + 286 u[78] + 213 u[79] <= 8104
 primal_lower3: - 131 y[0] - 36 y[1] - 22 y[2] - 82 y[3] - 156 y[4]
   - 135 y[5] - 175 y[6] - 161 y[7] - 8 y[8] - 160 y[9] - 169 y[10]
   - 12 y[11] - 39 y[12] - 13 y[13] - 94 y[14] - 50 y[15] - 186 y[16]
   - 185 y[18] - 190 y[19] - 126 y[20] - 32 y[21] - 11 y[22] - 115 y[23]
   - 61 y[24] - 107 y[25] - 152 y[26] - 116 y[27] - 29 y[28] - 191 y[29]
   - 119 y[30] - 145 y[31] - 165 y[32] - 201 y[33] - 15 y[34] - 107 y[35]
   - 50 y[36] - 170 y[37] - 43 y[38] - 97 y[39] - 85 y[40] - 117 y[41]
   - 96 y[42] - 153 y[43] - 41 y[44] - 135 y[45] - 139 y[46] - 24 y[47]
   - y[48] - 194 y[49] - 105 y[50] - 186 y[51] - 84 y[52] - 79 y[53]
   - 89 y[54] - 132 y[55] - 122 y[56] - 82 y[57] - 42 y[58] - 7 y[59]
   - 177 y[60] - 145 y[61] - 124 y[62] - 159 y[63] - 37 y[64] - 91 y[65]
   - 86 y[66] - 189 y[67] - 183 y[68] - 107 y[69] - 94 y[70] - 71 y[71]
   - 105 y[72] - 33 y[73] - 70 y[74] - 90 y[75] - 51 y[76] - 77 y[77]
   - 107 y[78] - 18 y[79] + 58 u[0] + 928 u[1] + 478 u[2] + 609 u[3]
   + 676 u[4] + 818 u[5] + 245 u[6] + 598 u[7] + 590 u[8] + 820 u[9]
   + 452 u[10] + 819 u[11] + 319 u[12] + 412 u[13] + 774 u[14] + 198 u[15]
   + 455 u[16] + 841 u[17] + 188 u[18] + 669 u[19] + 254 u[20] + 993 u[21]
   + 677 u[22] + 557 u[23] + 254 u[24] + 405 u[25] + 118 u[26] + 508 u[27]
   + 551 u[28] + 497 u[29] + 407 u[30] + 870 u[31] + 871 u[32] + 40 u[33]
   + 266 u[34] + 12 u[35] + 395 u[36] + 853 u[37] + 936 u[38] + 372 u[39]
   + 855 u[40] + 76 u[41] + 250 u[42] + 393 u[43] + 518 u[44] + 870 u[45]
   + 345 u[46] + 834 u[47] + 7 u[48] + 587 u[49] + 458 u[50] + 841 u[51]
   + 44 u[52] + 258 u[53] + 498 u[54] + 978 u[55] + 816 u[56] + 276 u[57]
   + 377 u[58] + 35 u[59] + 516 u[60] + 495 u[61] + 142 u[62] + 834 u[63]
   + 878 u[64] + 822 u[65] + 375 u[66] + 937 u[67] + 734 u[68] + 134 u[69]
   + 907 u[70] + 399 u[71] + 174 u[72] + 323 u[73] + 527 u[74] + 177 u[75]
   + 990 u[76] + 817 u[77] + 465 u[78] + 782 u[79] <= 16610
 primal_lower4: - 3 y[0] - 4 y[1] - 5 y[2] - 11 y[4] - 11 y[5] - 4 y[6]
   - 11 y[7] - 11 y[8] - 8 y[9] - 11 y[10] - 12 y[11] - 4 y[12] - 7 y[13]
   - 9 y[14] - 4 y[16] - 9 y[18] - 10 y[19] - 11 y[20] - 2 y[21] - 9 y[24]
   - 2 y[25] - 7 y[26] - 4 y[27] - 7 y[28] - 9 y[29] - 6 y[30] - 4 y[31]
   - 7 y[32] - 6 y[33] - 4 y[34] - 6 y[35] - y[36] - y[37] - 9 y[38]
   - 4 y[39] - 2 y[40] - 6 y[41] - y[43] - 11 y[44] - 4 y[45] - 5 y[46]
   - 11 y[47] - 9 y[48] - 12 y[49] - y[50] - 4 y[51] - 3 y[53] - 4 y[54]
   - 12 y[55] - 7 y[57] - y[58] - 8 y[59] - 7 y[60] - 9 y[61] - 4 y[62]
   - 11 y[63] - 7 y[64] - 9 y[65] - 3 y[66] - 3 y[69] - 11 y[70] - 11 y[71]
   - 10 y[72] - 3 y[73] - 5 y[74] - 12 y[76] - 4 y[77] - 7 y[78] - 11 y[79]
   + 202 u[0] + 8 u[1] + 558 u[2] + 169 u[3] + 220 u[4] + 850 u[5]
   + 293 u[6] + 902 u[7] + 582 u[8] + 596 u[9] + 988 u[10] + 771 u[11]
   + 407 u[12] + 492 u[13] + 494 u[14] + 830 u[15] + 967 u[16] + 993 u[17]
   + 804 u[18] + 853 u[19] + 590 u[20] + 113 u[21] + 525 u[22] + 645 u[23]
   + 382 u[24] + 621 u[25] + 70 u[26] + 644 u[27] + 751 u[28] + 225 u[29]
   + 735 u[30] + 910 u[31] + 319 u[32] + 280 u[33] + 898 u[34] + 284 u[35]
   + 763 u[36] + 389 u[37] + 960 u[38] + 244 u[39] + 703 u[40] + 756 u[41]
   + 850 u[42] + 473 u[43] + 86 u[44] + 758 u[45] + 481 u[46] + 466 u[47]
   + 343 u[48] + 587 u[49] + 626 u[50] + 609 u[51] + 692 u[52] + 618 u[53]
   + 618 u[54] + 818 u[55] + 784 u[56] + 20 u[57] + 905 u[58] + 675 u[59]
   + 964 u[60] + 943 u[61] + 662 u[62] + 490 u[63] + 830 u[64] + 758 u[65]
   + 695 u[66] + 521 u[67] + 894 u[68] + 902 u[69] + 299 u[70] + 759 u[71]
   + 974 u[72] + 835 u[73] + 351 u[74] + 401 u[75] + 454 u[76] + 977 u[77]
   + 889 u[78] + 790 u[79] <= 993
 primal_lower5: - 37 y[0] - 204 y[1] - 212 y[2] - 240 y[3] - 319 y[4]
   - 194 y[5] - 187 y[6] - 242 y[7] - 150 y[8] - 274 y[9] - 44 y[10]
   - 15 y[11] - 168 y[12] - 284 y[13] - 19 y[14] - 216 y[15] - 208 y[16]
   - 265 y[17] - 204 y[18] - 318 y[19] - 268 y[20] - 156 y[21] - 30 y[22]
   - 130 y[23] - 291 y[24] - 310 y[25] - 5 y[26] - 58 y[27] - 39 y[28]
   - 272 y[29] - 156 y[30] - 59 y[31] - 187 y[32] - 283 y[33] - 110 y[34]
   - 150 y[35] - 16 y[36] - 84 y[37] - 289 y[38] - 156 y[39] - 210 y[40]
   - 73 y[41] - 295 y[42] - 306 y[43] - 234 y[44] - 13 y[45] - 261 y[46]
   - 105 y[47] - 247 y[48] - 167 y[49] - 24 y[50] - 298 y[51] - 22 y[52]
   - 244 y[53] - 253 y[54] - 257 y[55] - 40 y[56] - 261 y[57] - 297 y[58]
   - 273 y[59] - 227 y[60] - 24 y[61] - 147 y[62] - 155 y[63] - 237 y[64]
   - 151 y[65] - 217 y[66] - 95 y[67] - 283 y[68] - 3 y[69] - 160 y[70]
   - 285 y[71] - 144 y[72] - 30 y[73] - 114 y[74] - 135 y[75] - 240 y[76]
   - 134 y[77] - 293 y[78] - 118 y[79] + 138 u[0] + 72 u[1] + 110 u[2]
   + 849 u[3] + 580 u[4] + 2 u[5] + 517 u[6] + 486 u[7] + 678 u[8]
   + 708 u[9] + 892 u[10] + 475 u[11] + 879 u[12] + 60 u[13] + 286 u[14]
   + 774 u[15] + 951 u[16] + 273 u[17] + 868 u[18] + 77 u[19] + 422 u[20]
   + 913 u[21] + 61 u[22] + 541 u[23] + 478 u[24] + 829 u[25] + 222 u[26]
   + 988 u[27] + 439 u[28] + 521 u[29] + 935 u[30] + 294 u[31] + 983 u[32]
   + 224 u[33] + 290 u[34] + 820 u[35] + 979 u[36] + 821 u[37] + 632 u[38]
   + 868 u[39] + 175 u[40] + 972 u[41] + 506 u[42] + 929 u[43] + 678 u[44]
   + 118 u[45] + 105 u[46] + 546 u[47] + 175 u[48] + 755 u[49] + 634 u[50]
   + 793 u[51] + 396 u[52] + 322 u[53] + 642 u[54] + 282 u[55] + 968 u[56]
   + 980 u[57] + 697 u[58] + 867 u[59] + 388 u[60] + 239 u[61] + 294 u[62]
   + 210 u[63] + 326 u[64] + 518 u[65] + 879 u[66] + 993 u[67] + 710 u[68]
   + 302 u[69] + 563 u[70] + 231 u[71] + 902 u[72] + 451 u[73] + 527 u[74]
   + 785 u[75] + 606 u[76] + 41 u[77] + 257 u[78] + 286 u[79] <= 25789
 primal_lower6: - 2 y[0] - 6 y[1] - 4 y[2] - 7 y[3] - 5 y[4] - 9 y[5]
   - 2 y[6] - 2 y[7] - 10 y[8] - 7 y[9] - 10 y[10] - y[11] - 9 y[12]
   - 4 y[13] - 5 y[14] - 3 y[15] - 12 y[16] - 4 y[17] - 8 y[19] - 4 y[20]
   - 4 y[21] - 7 y[22] - 3 y[23] - 4 y[24] - y[25] - 9 y[26] - 8 y[27]
   - 11 y[28] - 8 y[29] - 8 y[30] - 3 y[31] - 2 y[32] - 6 y[33] - 3 y[34]
   - 10 y[35] - 7 y[36] - 7 y[37] - y[38] - 10 y[39] - 2 y[41] - 8 y[42]
   - 2 y[43] - 11 y[44] - 5 y[45] - 8 y[46] - 9 y[47] - 7 y[48] - 3 y[49]
   - 11 y[50] - 2 y[52] - 3 y[53] - 5 y[55] - 10 y[56] - 10 y[57] - 9 y[58]
   - 8 y[59] - y[60] - 9 y[61] - 8 y[62] - 4 y[63] - 7 y[64] - 3 y[65]
   - 2 y[66] - 11 y[67] - 11 y[68] - 2 y[69] - y[70] - 6 y[71] - 10 y[72]
   - 10 y[73] - 10 y[74] - 8 y[76] - 10 y[77] - 9 y[79] + 163 u[0]
   + 52 u[1] + 652 u[2] + 472 u[3] + 86 u[4] + 830 u[5] + 747 u[6]
   + 358 u[7] + 472 u[8] + 695 u[9] + 33 u[10] + 563 u[11] + 873 u[12]
   + 375 u[13] + 355 u[14] + 173 u[15] + 449 u[16] + 468 u[17] + 946 u[18]
   + 428 u[19] + 247 u[20] + 77 u[21] + 699 u[22] + 541 u[23] + 784 u[24]
   + 505 u[25] + 748 u[26] + 692 u[27] + 472 u[28] + 269 u[29] + 804 u[30]
   + 806 u[31] + 809 u[32] + 292 u[33] + 896 u[34] + 492 u[35] + 525 u[36]
   + 912 u[37] + 166 u[38] + 507 u[39] + 721 u[40] + 15 u[41] + 183 u[42]
   + 273 u[43] + 8 u[44] + 650 u[45] + 294 u[46] + 322 u[47] + 392 u[48]
   + 943 u[49] + 528 u[50] + 392 u[51] + 478 u[52] + 414 u[53] + 167 u[54]
   + 41 u[55] + 889 u[56] + 384 u[57] + 95 u[58] + 738 u[59] + 381 u[60]
   + 739 u[61] + 963 u[62] + 754 u[63] + 935 u[64] + 650 u[65] + 797 u[66]
   + 825 u[67] + 352 u[68] + 361 u[69] + 377 u[70] + 439 u[71] + 96 u[72]
   + 167 u[73] + 260 u[74] + 953 u[75] + 256 u[76] + 340 u[77] + 558 u[78]
   + 757 u[79] <= 963
 primal_lower7: - 184 y[0] - 119 y[1] - 100 y[2] - 54 y[3] - 76 y[4]
   - 162 y[5] - 197 y[6] - 20 y[7] - 178 y[8] - 49 y[9] - 26 y[10]
   - 172 y[11] - 16 y[12] - 4 y[13] - 45 y[14] - 24 y[15] - 198 y[16]
   - 96 y[17] - 20 y[18] - 183 y[19] - 193 y[20] - 12 y[21] - 55 y[22]
   - 179 y[23] - 51 y[24] - 5 y[25] - 125 y[26] - 74 y[27] - 133 y[28]
   - 10 y[29] - 64 y[30] - 28 y[31] - 186 y[32] - 197 y[33] - 137 y[34]
   - 37 y[35] - 105 y[36] - 192 y[37] - 129 y[38] - 156 y[39] - 127 y[40]
   - 81 y[41] - 152 y[42] - 111 y[43] - 157 y[44] - 52 y[45] - 34 y[46]
   - 102 y[47] - 11 y[48] - 88 y[49] - 23 y[50] - 105 y[51] - 72 y[52]
   - 69 y[53] - 87 y[54] - 67 y[55] - 126 y[56] - 149 y[57] - 137 y[58]
   - 63 y[59] - 87 y[60] - 97 y[61] - 49 y[62] - 83 y[63] - 44 y[64]
   - 128 y[65] - 93 y[66] - 174 y[67] - 24 y[68] - 141 y[69] - 133 y[70]
   - 27 y[71] - 66 y[72] - 107 y[73] - 35 y[74] - 69 y[75] - 40 y[76]
   - 103 y[77] - 149 y[78] - 119 y[79] + 778 u[0] + 312 u[1] + 614 u[2]
   + 201 u[3] + 940 u[4] + 290 u[5] + 629 u[6] + 310 u[7] + 38 u[8]
   + 748 u[9] + 276 u[10] + 235 u[11] + 719 u[12] + 228 u[13] + 22 u[14]
   + 710 u[15] + 207 u[16] + 177 u[17] + 116 u[18] + 125 u[19] + 774 u[20]
   + 617 u[21] + 869 u[22] + 565 u[23] + 766 u[24] + 717 u[25] + 582 u[26]
   + 764 u[27] + 975 u[28] + 801 u[29] + 255 u[30] + 38 u[31] + 999 u[32]
   + 992 u[33] + 890 u[34] + 324 u[35] + 355 u[36] + 421 u[37] + 848 u[38]
   + 660 u[39] + 655 u[40] + 236 u[41] + 970 u[42] + 969 u[43] + 558 u[44]
   + 846 u[45] + 593 u[46] + 50 u[47] + 247 u[48] + 59 u[49] + 474 u[50]
   + 889 u[51] + 92 u[52] + 498 u[53] + 618 u[54] + 658 u[55] + 128 u[56]
   + 4 u[57] + 617 u[58] + 931 u[59] + 404 u[60] + 511 u[61] + 222 u[62]
   + 18 u[63] + 686 u[64] + 550 u[65] + 887 u[66] + 897 u[67] + 118 u[68]
   + 382 u[69] + 891 u[70] + 159 u[71] + 62 u[72] + 339 u[73] + 71 u[74]
   + 393 u[75] + 206 u[76] + 729 u[77] + 369 u[78] + 814 u[79] <= 15874
 primal_lower8: - 24 y[0] - 166 y[1] - 162 y[2] - 54 y[3] - 256 y[4]
   - 150 y[5] - 77 y[6] - 162 y[7] - 155 y[8] - 17 y[9] - 185 y[10]
   - 92 y[11] - 206 y[12] - 211 y[13] - 252 y[14] - 136 y[15] - 224 y[16]
   - 150 y[17] - 142 y[18] - 186 y[19] - 207 y[20] - 149 y[21] - 178 y[22]
   - 206 y[23] - 276 y[24] - 228 y[25] - 238 y[26] - 245 y[27] - 147 y[28]
   - 63 y[29] - 238 y[30] - 81 y[31] - 25 y[32] - 162 y[33] - 183 y[34]
   - 196 y[35] - y[36] - 150 y[37] - 173 y[38] - 48 y[39] - 151 y[40]
   - 164 y[41] - 90 y[42] - 217 y[43] - 54 y[44] - 88 y[45] - 5 y[46]
   - 263 y[47] - 240 y[48] - 36 y[49] - 105 y[50] - 152 y[51] - 95 y[52]
   - 252 y[53] - 93 y[54] - 175 y[55] - 281 y[56] - 226 y[57] - 183 y[58]
   - 8 y[59] - 38 y[60] - 183 y[61] - 205 y[62] - 231 y[63] - 147 y[64]
   - 96 y[65] - 219 y[66] - 72 y[67] - 115 y[68] - 99 y[69] - 166 y[70]
   - 183 y[71] - 117 y[72] - 247 y[73] - 161 y[74] - 9 y[75] - 283 y[76]
   - 178 y[77] - 83 y[78] - 212 y[79] + 320 u[0] + 534 u[1] + 964 u[2]
   + 199 u[3] + 938 u[4] + 296 u[5] + 267 u[6] + 588 u[7] + 476 u[8]
   + 506 u[9] + 98 u[10] + 329 u[11] + 725 u[12] + 346 u[13] + 468 u[14]
   + 196 u[15] + 317 u[16] + 239 u[17] + 258 u[18] + 995 u[19] + 4 u[20]
   + 823 u[21] + 139 u[22] + 811 u[23] + 212 u[24] + 507 u[25] + 460 u[26]
   + 370 u[27] + 309 u[28] + 671 u[29] + 93 u[30] + 932 u[31] + 589 u[32]
   + 6 u[33] + 48 u[34] + 834 u[35] + 361 u[36] + 763 u[37] + 30 u[38]
   + 578 u[39] + 253 u[40] + 42 u[41] + 528 u[42] + 535 u[43] + 204 u[44]
   + 996 u[45] + 423 u[46] + 376 u[47] + 797 u[48] + 753 u[49] + 984 u[50]
   + 871 u[51] + 50 u[52] + 8 u[53] + 568 u[54] + 760 u[55] + 822 u[56]
   + 450 u[57] + 39 u[58] + 489 u[59] + 306 u[60] + 973 u[61] + 12 u[62]
   + 944 u[63] + 732 u[64] + 236 u[65] + 437 u[66] + 719 u[67] + 92 u[68]
   + 908 u[69] + 457 u[70] + 933 u[71] + 124 u[72] + 977 u[73] + 61 u[74]
   + 343 u[75] + 204 u[76] + 759 u[77] + 343 u[78] + 732 u[79] <= 22703
 primal_lower9: - 9 y[0] - 12 y[1] - 32 y[2] - 96 y[3] - 23 y[4] - 96 y[5]
   - 47 y[6] - 19 y[7] - 80 y[8] - 49 y[9] - 92 y[10] - 94 y[11] - 73 y[12]
   - 90 y[13] - 35 y[14] - 28 y[15] - 18 y[16] - 76 y[17] - y[18]
   - 33 y[20] - 16 y[21] - 33 y[22] - 87 y[23] - 2 y[24] - 61 y[25]
   - 62 y[26] - 18 y[27] - 36 y[28] - 35 y[29] - 29 y[30] - 69 y[31]
   - 86 y[32] - 66 y[33] - 17 y[34] - 61 y[35] - 40 y[36] - 68 y[37]
   - 40 y[38] - 14 y[39] - 2 y[40] - 75 y[41] - 97 y[42] - 87 y[43]
   - 37 y[44] - 80 y[45] - 11 y[46] - 72 y[47] - 99 y[48] - 29 y[49]
   - 69 y[50] - 75 y[51] - 26 y[52] - 10 y[53] - 12 y[54] - 94 y[55]
   - 79 y[56] - 94 y[57] - 35 y[58] - 33 y[59] - 44 y[60] - 92 y[61]
   - 87 y[62] - 101 y[63] - 8 y[64] - 69 y[65] - 11 y[66] - 60 y[67]
   - 62 y[68] - 53 y[69] - 50 y[70] - 71 y[71] - 44 y[72] - y[73]
   - 48 y[74] - 36 y[75] - 16 y[76] - 10 y[77] - 74 y[78] - 86 y[79]
   + 111 u[0] + 137 u[1] + 675 u[2] + 274 u[3] + 457 u[4] + 219 u[5]
   + 874 u[6] + 447 u[7] + 811 u[8] + 629 u[9] + 809 u[10] + 796 u[11]
   + 364 u[12] + 349 u[13] + 291 u[14] + 127 u[15] + 500 u[16] + 146 u[17]
   + 961 u[18] + 694 u[19] + 715 u[20] + 466 u[21] + 618 u[22] + 430 u[23]
   + 707 u[24] + 694 u[25] + 147 u[26] + 949 u[27] + 780 u[28] + 98 u[29]
   + 876 u[30] + 935 u[31] + 244 u[32] + 865 u[33] + 863 u[34] + 661 u[35]
   + 848 u[36] + 182 u[37] + 997 u[38] + 93 u[39] + 172 u[40] + 325 u[41]
   + 343 u[42] + 794 u[43] + 763 u[44] + 935 u[45] + 478 u[46] + 3 u[47]
   + 108 u[48] + 244 u[49] + 463 u[50] + 610 u[51] + 705 u[52] + 35 u[53]
   + 711 u[54] + 67 u[55] + 557 u[56] + 813 u[57] + 702 u[58] + 724 u[59]
   + 457 u[60] + 152 u[61] + 379 u[62] + 131 u[63] + 827 u[64] + 23 u[65]
   + 996 u[66] + 170 u[67] + 587 u[68] + 687 u[69] + 888 u[70] + 800 u[71]
   + 451 u[72] + 524 u[73] + 124 u[74] + 314 u[75] + 99 u[76] + 250 u[77]
   + 966 u[78] + 367 u[79] <= 8116
 mccormick1[0]: - u[0] + z[0] <= 0
 mccormick1[1]: - u[1] + z[1] <= 0
 mccormick1[2]: - u[2] + z[2] <= 0
 mccormick1[3]: - u[3] + z[3] <= 0
 mccormick1[4]: - u[4] + z[4] <= 0
 mccormick1[5]: - u[5] + z[5] <= 0
 mccormick1[6]: - u[6] + z[6] <= 0
 mccormick1[7]: - u[7] + z[7] <= 0
 mccormick1[8]: - u[8] + z[8] <= 0
 mccormick1[9]: - u[9] + z[9] <= 0
 mccormick1[10]: - u[10] + z[10] <= 0
 mccormick1[11]: - u[11] + z[11] <= 0
 mccormick1[12]: - u[12] + z[12] <= 0
 mccormick1[13]: - u[13] + z[13] <= 0
 mccormick1[14]: - u[14] + z[14] <= 0
 mccormick1[15]: - u[15] + z[15] <= 0
 mccormick1[16]: - u[16] + z[16] <= 0
 mccormick1[17]: - u[17] + z[17] <= 0
 mccormick1[18]: - u[18] + z[18] <= 0
 mccormick1[19]: - u[19] + z[19] <= 0
 mccormick1[20]: - u[20] + z[20] <= 0
 mccormick1[21]: - u[21] + z[21] <= 0
 mccormick1[22]: - u[22] + z[22] <= 0
 mccormick1[23]: - u[23] + z[23] <= 0
 mccormick1[24]: - u[24] + z[24] <= 0
 mccormick1[25]: - u[25] + z[25] <= 0
 mccormick1[26]: - u[26] + z[26] <= 0
 mccormick1[27]: - u[27] + z[27] <= 0
 mccormick1[28]: - u[28] + z[28] <= 0
 mccormick1[29]: - u[29] + z[29] <= 0
 mccormick1[30]: - u[30] + z[30] <= 0
 mccormick1[31]: - u[31] + z[31] <= 0
 mccormick1[32]: - u[32] + z[32] <= 0
 mccormick1[33]: - u[33] + z[33] <= 0
 mccormick1[34]: - u[34] + z[34] <= 0
 mccormick1[35]: - u[35] + z[35] <= 0
 mccormick1[36]: - u[36] + z[36] <= 0
 mccormick1[37]: - u[37] + z[37] <= 0
 mccormick1[38]: - u[38] + z[38] <= 0
 mccormick1[39]: - u[39] + z[39] <= 0
 mccormick1[40]: - u[40] + z[40] <= 0
 mccormick1[41]: - u[41] + z[41] <= 0
 mccormick1[42]: - u[42] + z[42] <= 0
 mccormick1[43]: - u[43] + z[43] <= 0
 mccormick1[44]: - u[44] + z[44] <= 0
 mccormick1[45]: - u[45] + z[45] <= 0
 mccormick1[46]: - u[46] + z[46] <= 0
 mccormick1[47]: - u[47] + z[47] <= 0
 mccormick1[48]: - u[48] + z[48] <= 0
 mccormick1[49]: - u[49] + z[49] <= 0
 mccormick1[50]: - u[50] + z[50] <= 0
 mccormick1[51]: - u[51] + z[51] <= 0
 mccormick1[52]: - u[52] + z[52] <= 0
 mccormick1[53]: - u[53] + z[53] <= 0
 mccormick1[54]: - u[54] + z[54] <= 0
 mccormick1[55]: - u[55] + z[55] <= 0
 mccormick1[56]: - u[56] + z[56] <= 0
 mccormick1[57]: - u[57] + z[57] <= 0
 mccormick1[58]: - u[58] + z[58] <= 0
 mccormick1[59]: - u[59] + z[59] <= 0
 mccormick1[60]: - u[60] + z[60] <= 0
 mccormick1[61]: - u[61] + z[61] <= 0
 mccormick1[62]: - u[62] + z[62] <= 0
 mccormick1[63]: - u[63] + z[63] <= 0
 mccormick1[64]: - u[64] + z[64] <= 0
 mccormick1[65]: - u[65] + z[65] <= 0
 mccormick1[66]: - u[66] + z[66] <= 0
 mccormick1[67]: - u[67] + z[67] <= 0
 mccormick1[68]: - u[68] + z[68] <= 0
 mccormick1[69]: - u[69] + z[69] <= 0
 mccormick1[70]: - u[70] + z[70] <= 0
 mccormick1[71]: - u[71] + z[71] <= 0
 mccormick1[72]: - u[72] + z[72] <= 0
 mccormick1[73]: - u[73] + z[73] <= 0
 mccormick1[74]: - u[74] + z[74] <= 0
 mccormick1[75]: - u[75] + z[75] <= 0
 mccormick1[76]: - u[76] + z[76] <= 0
 mccormick1[77]: - u[77] + z[77] <= 0
 mccormick1[78]: - u[78] + z[78] <= 0
 mccormick1[79]: - u[79] + z[79] <= 0
 mccormick2[0]: - y[0] + z[0] <= 0
 mccormick2[1]: - y[1] + z[1] <= 0
 mccormick2[2]: - y[2] + z[2] <= 0
 mccormick2[3]: - y[3] + z[3] <= 0
 mccormick2[4]: - y[4] + z[4] <= 0
 mccormick2[5]: - y[5] + z[5] <= 0
 mccormick2[6]: - y[6] + z[6] <= 0
 mccormick2[7]: - y[7] + z[7] <= 0
 mccormick2[8]: - y[8] + z[8] <= 0
 mccormick2[9]: - y[9] + z[9] <= 0
 mccormick2[10]: - y[10] + z[10] <= 0
 mccormick2[11]: - y[11] + z[11] <= 0
 mccormick2[12]: - y[12] + z[12] <= 0
 mccormick2[13]: - y[13] + z[13] <= 0
 mccormick2[14]: - y[14] + z[14] <= 0
 mccormick2[15]: - y[15] + z[15] <= 0
 mccormick2[16]: - y[16] + z[16] <= 0
 mccormick2[17]: - y[17] + z[17] <= 0
 mccormick2[18]: - y[18] + z[18] <= 0
 mccormick2[19]: - y[19] + z[19] <= 0
 mccormick2[20]: - y[20] + z[20] <= 0
 mccormick2[21]: - y[21] + z[21] <= 0
 mccormick2[22]: - y[22] + z[22] <= 0
 mccormick2[23]: - y[23] + z[23] <= 0
 mccormick2[24]: - y[24] + z[24] <= 0
 mccormick2[25]: - y[25] + z[25] <= 0
 mccormick2[26]: - y[26] + z[26] <= 0
 mccormick2[27]: - y[27] + z[27] <= 0
 mccormick2[28]: - y[28] + z[28] <= 0
 mccormick2[29]: - y[29] + z[29] <= 0
 mccormick2[30]: - y[30] + z[30] <= 0
 mccormick2[31]: - y[31] + z[31] <= 0
 mccormick2[32]: - y[32] + z[32] <= 0
 mccormick2[33]: - y[33] + z[33] <= 0
 mccormick2[34]: - y[34] + z[34] <= 0
 mccormick2[35]: - y[35] + z[35] <= 0
 mccormick2[36]: - y[36] + z[36] <= 0
 mccormick2[37]: - y[37] + z[37] <= 0
 mccormick2[38]: - y[38] + z[38] <= 0
 mccormick2[39]: - y[39] + z[39] <= 0
 mccormick2[40]: - y[40] + z[40] <= 0
 mccormick2[41]: - y[41] + z[41] <= 0
 mccormick2[42]: - y[42] + z[42] <= 0
 mccormick2[43]: - y[43] + z[43] <= 0
 mccormick2[44]: - y[44] + z[44] <= 0
 mccormick2[45]: - y[45] + z[45] <= 0
 mccormick2[46]: - y[46] + z[46] <= 0
 mccormick2[47]: - y[47] + z[47] <= 0
 mccormick2[48]: - y[48] + z[48] <= 0
 mccormick2[49]: - y[49] + z[49] <= 0
 mccormick2[50]: - y[50] + z[50] <= 0
 mccormick2[51]: - y[51] + z[51] <= 0
 mccormick2[52]: - y[52] + z[52] <= 0
 mccormick2[53]: - y[53] + z[53] <= 0
 mccormick2[54]: - y[54] + z[54] <= 0
 mccormick2[55]: - y[55] + z[55] <= 0
 mccormick2[56]: - y[56] + z[56] <= 0
 mccormick2[57]: - y[57] + z[57] <= 0
 mccormick2[58]: - y[58] + z[58] <= 0
 mccormick2[59]: - y[59] + z[59] <= 0
 mccormick2[60]: - y[60] + z[60] <= 0
 mccormick2[61]: - y[61] + z[61] <= 0
 mccormick2[62]: - y[62] + z[62] <= 0
 mccormick2[63]: - y[63] + z[63] <= 0
 mccormick2[64]: - y[64] + z[64] <= 0
 mccormick2[65]: - y[65] + z[65] <= 0
 mccormick2[66]: - y[66] + z[66] <= 0
 mccormick2[67]: - y[67] + z[67] <= 0
 mccormick2[68]: - y[68] + z[68] <= 0
 mccormick2[69]: - y[69] + z[69] <= 0
 mccormick2[70]: - y[70] + z[70] <= 0
 mccormick2[71]: - y[71] + z[71] <= 0
 mccormick2[72]: - y[72] + z[72] <= 0
 mccormick2[73]: - y[73] + z[73] <= 0
 mccormick2[74]: - y[74] + z[74] <= 0
 mccormick2[75]: - y[75] + z[75] <= 0
 mccormick2[76]: - y[76] + z[76] <= 0
 mccormick2[77]: - y[77] + z[77] <= 0
 mccormick2[78]: - y[78] + z[78] <= 0
 mccormick2[79]: - y[79] + z[79] <= 0
 mccormick3[0]: y[0] + u[0] - z[0] <= 1
 mccormick3[1]: y[1] + u[1] - z[1] <= 1
 mccormick3[2]: y[2] + u[2] - z[2] <= 1
 mccormick3[3]: y[3] + u[3] - z[3] <= 1
 mccormick3[4]: y[4] + u[4] - z[4] <= 1
 mccormick3[5]: y[5] + u[5] - z[5] <= 1
 mccormick3[6]: y[6] + u[6] - z[6] <= 1
 mccormick3[7]: y[7] + u[7] - z[7] <= 1
 mccormick3[8]: y[8] + u[8] - z[8] <= 1
 mccormick3[9]: y[9] + u[9] - z[9] <= 1
 mccormick3[10]: y[10] + u[10] - z[10] <= 1
 mccormick3[11]: y[11] + u[11] - z[11] <= 1
 mccormick3[12]: y[12] + u[12] - z[12] <= 1
 mccormick3[13]: y[13] + u[13] - z[13] <= 1
 mccormick3[14]: y[14] + u[14] - z[14] <= 1
 mccormick3[15]: y[15] + u[15] - z[15] <= 1
 mccormick3[16]: y[16] + u[16] - z[16] <= 1
 mccormick3[17]: y[17] + u[17] - z[17] <= 1
 mccormick3[18]: y[18] + u[18] - z[18] <= 1
 mccormick3[19]: y[19] + u[19] - z[19] <= 1
 mccormick3[20]: y[20] + u[20] - z[20] <= 1
 mccormick3[21]: y[21] + u[21] - z[21] <= 1
 mccormick3[22]: y[22] + u[22] - z[22] <= 1
 mccormick3[23]: y[23] + u[23] - z[23] <= 1
 mccormick3[24]: y[24] + u[24] - z[24] <= 1
 mccormick3[25]: y[25] + u[25] - z[25] <= 1
 mccormick3[26]: y[26] + u[26] - z[26] <= 1
 mccormick3[27]: y[27] + u[27] - z[27] <= 1
 mccormick3[28]: y[28] + u[28] - z[28] <= 1
 mccormick3[29]: y[29] + u[29] - z[29] <= 1
 mccormick3[30]: y[30] + u[30] - z[30] <= 1
 mccormick3[31]: y[31] + u[31] - z[31] <= 1
 mccormick3[32]: y[32] + u[32] - z[32] <= 1
 mccormick3[33]: y[33] + u[33] - z[33] <= 1
 mccormick3[34]: y[34] + u[34] - z[34] <= 1
 mccormick3[35]: y[35] + u[35] - z[35] <= 1
 mccormick3[36]: y[36] + u[36] - z[36] <= 1
 mccormick3[37]: y[37] + u[37] - z[37] <= 1
 mccormick3[38]: y[38] + u[38] - z[38] <= 1
 mccormick3[39]: y[39] + u[39] - z[39] <= 1
 mccormick3[40]: y[40] + u[40] - z[40] <= 1
 mccormick3[41]: y[41] + u[41] - z[41] <= 1
 mccormick3[42]: y[42] + u[42] - z[42] <= 1
 mccormick3[43]: y[43] + u[43] - z[43] <= 1
 mccormick3[44]: y[44] + u[44] - z[44] <= 1
 mccormick3[45]: y[45] + u[45] - z[45] <= 1
 mccormick3[46]: y[46] + u[46] - z[46] <= 1
 mccormick3[47]: y[47] + u[47] - z[47] <= 1
 mccormick3[48]: y[48] + u[48] - z[48] <= 1
 mccormick3[49]: y[49] + u[49] - z[49] <= 1
 mccormick3[50]: y[50] + u[50] - z[50] <= 1
 mccormick3[51]: y[51] + u[51] - z[51] <= 1
 mccormick3[52]: y[52] + u[52] - z[52] <= 1
 mccormick3[53]: y[53] + u[53] - z[53] <= 1
 mccormick3[54]: y[54] + u[54] - z[54] <= 1
 mccormick3[55]: y[55] + u[55] - z[55] <= 1
 mccormick3[56]: y[56] + u[56] - z[56] <= 1
 mccormick3[57]: y[57] + u[57] - z[57] <= 1
 mccormick3[58]: y[58] + u[58] - z[58] <= 1
 mccormick3[59]: y[59] + u[59] - z[59] <= 1
 mccormick3[60]: y[60] + u[60] - z[60] <= 1
 mccormick3[61]: y[61] + u[61] - z[61] <= 1
 mccormick3[62]: y[62] + u[62] - z[62] <= 1
 mccormick3[63]: y[63] + u[63] - z[63] <= 1
 mccormick3[64]: y[64] + u[64] - z[64] <= 1
 mccormick3[65]: y[65] + u[65] - z[65] <= 1
 mccormick3[66]: y[66] + u[66] - z[66] <= 1
 mccormick3[67]: y[67] + u[67] - z[67] <= 1
 mccormick3[68]: y[68] + u[68] - z[68] <= 1
 mccormick3[69]: y[69] + u[69] - z[69] <= 1
 mccormick3[70]: y[70] + u[70] - z[70] <= 1
 mccormick3[71]: y[71] + u[71] - z[71] <= 1
 mccormick3[72]: y[72] + u[72] - z[72] <= 1
 mccormick3[73]: y[73] + u[73] - z[73] <= 1
 mccormick3[74]: y[74] + u[74] - z[74] <= 1
 mccormick3[75]: y[75] + u[75] - z[75] <= 1
 mccormick3[76]: y[76] + u[76] - z[76] <= 1
 mccormick3[77]: y[77] + u[77] - z[77] <= 1
 mccormick3[78]: y[78] + u[78] - z[78] <= 1
 mccormick3[79]: y[79] + u[79] - z[79] <= 1
Bounds
Binaries
 y[0] y[1] y[2] y[3] y[4] y[5] y[6] y[7] y[8] y[9] y[10] y[11] y[12] y[13]
 y[14] y[15] y[16] y[17] y[18] y[19] y[20] y[21] y[22] y[23] y[24] y[25]
 y[26] y[27] y[28] y[29] y[30] y[31] y[32] y[33] y[34] y[35] y[36] y[37]
 y[38] y[39] y[40] y[41] y[42] y[43] y[44] y[45] y[46] y[47] y[48] y[49]
 y[50] y[51] y[52] y[53] y[54] y[55] y[56] y[57] y[58] y[59] y[60] y[61]
 y[62] y[63] y[64] y[65] y[66] y[67] y[68] y[69] y[70] y[71] y[72] y[73]
 y[74] y[75] y[76] y[77] y[78] y[79] u[0] u[1] u[2] u[3] u[4] u[5] u[6]
 u[7] u[8] u[9] u[10] u[11] u[12] u[13] u[14] u[15] u[16] u[17] u[18] u[19]
 u[20] u[21] u[22] u[23] u[24] u[25] u[26] u[27] u[28] u[29] u[30] u[31]
 u[32] u[33] u[34] u[35] u[36] u[37] u[38] u[39] u[40] u[41] u[42] u[43]
 u[44] u[45] u[46] u[47] u[48] u[49] u[50] u[51] u[52] u[53] u[54] u[55]
 u[56] u[57] u[58] u[59] u[60] u[61] u[62] u[63] u[64] u[65] u[66] u[67]
 u[68] u[69] u[70] u[71] u[72] u[73] u[74] u[75] u[76] u[77] u[78] u[79]
 z[0] z[1] z[2] z[3] z[4] z[5] z[6] z[7] z[8] z[9] z[10] z[11] z[12] z[13]
 z[14] z[15] z[16] z[17] z[18] z[19] z[20] z[21] z[22] z[23] z[24] z[25]
 z[26] z[27] z[28] z[29] z[30] z[31] z[32] z[33] z[34] z[35] z[36] z[37]
 z[38] z[39] z[40] z[41] z[42] z[43] z[44] z[45] z[46] z[47] z[48] z[49]
 z[50] z[51] z[52] z[53] z[54] z[55] z[56] z[57] z[58] z[59] z[60] z[61]
 z[62] z[63] z[64] z[65] z[66] z[67] z[68] z[69] z[70] z[71] z[72] z[73]
 z[74] z[75] z[76] z[77] z[78] z[79]
End
